NAME : R206.906145.tour
COMMENT : Cost = 0_906145
COMMENT : Found by LKH [Keld Helsgaun] Thu Sep 14 00:49:37 2017
TYPE : TOUR
DIMENSION : 103
TOUR_SECTION
1
95
96
93
38
99
86
92
45
15
43
16
40
68
24
42
23
73
74
22
41
54
77
4
80
79
82
10
36
67
21
33
11
71
32
53
90
102
97
6
46
83
49
48
37
20
12
64
63
89
8
19
7
88
60
100
62
17
87
39
44
58
3
75
76
57
5
26
56
55
25
81
69
78
13
27
103
29
28
70
2
51
34
30
35
66
72
52
31
91
65
50
47
9
84
85
18
61
94
101
98
14
59
-1
EOF
